
Gurobi 12.0.2 (win64) logging started Wed Jun  4 16:52:46 2025

Set parameter LogFile to value "C:\Ioana\_uni\honours\slp\algorithm\Main_files\results\others\fatty_acids\Task_002_Sample001_irr_gurobi.log"
Gurobi Optimizer version 12.0.2 build v12.0.2rc0 (win64 - Windows 11.0 (26100.2))

CPU model: Intel(R) Core(TM) Ultra 5 125H, instruction set [SSE2|AVX|AVX2]
Thread count: 14 physical cores, 18 logical processors, using up to 18 threads

Non-default parameters:
TimeLimit  2200

Optimize a model with 47226 rows, 34495 columns and 146682 nonzeros
Model fingerprint: 0x7d1990c3
Variable types: 17250 continuous, 17245 integer (17245 binary)
Coefficient statistics:
  Matrix range     [1e-04, 8e+04]
  Objective range  [2e-04, 9e-01]
  Bounds range     [1e+00, 1e+03]
  RHS range        [1e+00, 1e+00]
Presolve removed 30773 rows and 21542 columns
Presolve time: 0.54s
Presolved: 16453 rows, 12953 columns, 54677 nonzeros
Variable types: 6409 continuous, 6544 integer (6544 binary)

Root relaxation: objective 7.123878e-05, 39 iterations, 0.01 seconds (0.01 work units)

    Nodes    |    Current Node    |     Objective Bounds      |     Work
 Expl Unexpl |  Obj  Depth IntInf | Incumbent    BestBd   Gap | It/Node Time

     0     0    0.00007    0    2          -    0.00007      -     -    0s
H    0     0                       0.0712388    0.00007   100%     -    0s

Explored 1 nodes (39 simplex iterations) in 0.75 seconds (0.47 work units)
Thread count was 18 (of 18 available processors)

Solution count 1: 0.0712388 

Optimal solution found (tolerance 1.00e-04)
Best objective 7.123877588419e-02, best bound 7.123877588419e-02, gap 0.0000%

Gurobi 12.0.2 (win64) logging started Wed Jun  4 16:56:09 2025

Set parameter LogFile to value "C:\Ioana\_uni\honours\slp\algorithm\Main_files\results\others\fatty_acids\Task_002_Sample001_irr_gurobi.log"
Gurobi Optimizer version 12.0.2 build v12.0.2rc0 (win64 - Windows 11.0 (26100.2))

CPU model: Intel(R) Core(TM) Ultra 5 125H, instruction set [SSE2|AVX|AVX2]
Thread count: 14 physical cores, 18 logical processors, using up to 18 threads

Non-default parameters:
TimeLimit  2200

Optimize a model with 47226 rows, 34495 columns and 146682 nonzeros
Model fingerprint: 0x7d1990c3
Variable types: 17250 continuous, 17245 integer (17245 binary)
Coefficient statistics:
  Matrix range     [1e-04, 8e+04]
  Objective range  [2e-04, 9e-01]
  Bounds range     [1e+00, 1e+03]
  RHS range        [1e+00, 1e+00]
Presolve removed 30773 rows and 21542 columns
Presolve time: 0.48s
Presolved: 16453 rows, 12953 columns, 54677 nonzeros
Variable types: 6409 continuous, 6544 integer (6544 binary)

Root relaxation: objective 7.123878e-05, 39 iterations, 0.01 seconds (0.01 work units)

    Nodes    |    Current Node    |     Objective Bounds      |     Work
 Expl Unexpl |  Obj  Depth IntInf | Incumbent    BestBd   Gap | It/Node Time

     0     0    0.00007    0    2          -    0.00007      -     -    0s
H    0     0                       0.0712388    0.00007   100%     -    0s

Explored 1 nodes (39 simplex iterations) in 0.67 seconds (0.47 work units)
Thread count was 18 (of 18 available processors)

Solution count 1: 0.0712388 

Optimal solution found (tolerance 1.00e-04)
Best objective 7.123877588419e-02, best bound 7.123877588419e-02, gap 0.0000%

Gurobi 12.0.2 (win64) logging started Thu Jun  5 15:33:11 2025

Set parameter LogFile to value "C:\Ioana\_uni\honours\slp\algorithm\Main_files\results\others\fatty_acids\Task_002_Sample001_irr_gurobi.log"
Gurobi Optimizer version 12.0.2 build v12.0.2rc0 (win64 - Windows 11.0 (26100.2))

CPU model: Intel(R) Core(TM) Ultra 5 125H, instruction set [SSE2|AVX|AVX2]
Thread count: 14 physical cores, 18 logical processors, using up to 18 threads

Non-default parameters:
TimeLimit  2200

Optimize a model with 47226 rows, 34495 columns and 146682 nonzeros
Model fingerprint: 0x7d1990c3
Variable types: 17250 continuous, 17245 integer (17245 binary)
Coefficient statistics:
  Matrix range     [1e-04, 8e+04]
  Objective range  [2e-04, 9e-01]
  Bounds range     [1e+00, 1e+03]
  RHS range        [1e+00, 1e+00]
Presolve removed 30773 rows and 21542 columns
Presolve time: 0.47s
Presolved: 16453 rows, 12953 columns, 54677 nonzeros
Variable types: 6409 continuous, 6544 integer (6544 binary)

Root relaxation: objective 7.123878e-05, 39 iterations, 0.02 seconds (0.01 work units)

    Nodes    |    Current Node    |     Objective Bounds      |     Work
 Expl Unexpl |  Obj  Depth IntInf | Incumbent    BestBd   Gap | It/Node Time

     0     0    0.00007    0    2          -    0.00007      -     -    0s
H    0     0                       0.0712388    0.00007   100%     -    0s

Explored 1 nodes (39 simplex iterations) in 0.71 seconds (0.47 work units)
Thread count was 18 (of 18 available processors)

Solution count 1: 0.0712388 

Optimal solution found (tolerance 1.00e-04)
Best objective 7.123877588419e-02, best bound 7.123877588419e-02, gap 0.0000%
